n_res = 4;
rcap = [9, 21, 37, 48];
rtype = [1, 1, 2, 2];
n_tasks = 16;
modes = [ {1}, {2}, {3}, {4}, {5}, {6}, {7}, {8}, {9}, {10}, {11}, {12}, {13}, {14}, {15}, {16} ];
succ = [ {4}, {5, 7}, {6, 9, 13}, {5, 7, 9}, {6, 13}, {8, 10, 11}, {8, 10, 15}, {16}, {12, 14}, {12, 14}, {15}, {16}, {14, 15, 16}, {}, {}, {} ];
n_opt = 16;
dur = [3, 2, 1, 9, 7, 10, 1, 10, 5, 1, 9, 5, 10, 8, 9, 3];
rreq = [|  7,  2,  0,  4,  0,  0,  8,  0,  0,  4,  0,  0,  6,  0,  0,  0
        |  0,  0,  9,  0,  9,  7,  0, 10,  3,  0,  5,  6,  0,  4,  9,  1
        |  0,  0,  0,  0,  2,  0,  9,  6,  5,  5,  0,  0,  4,  3,  0,  3
        |  7,  6,  2,  6,  0,  6,  0,  0,  0,  0,  7,  8,  0,  0,  6,  0 |];
